data;

set J := 1 2 3 4 5 6 7 8 9 10;
set I := 1 2 3 4 5 6 7 8;

param p := 
    1 140
    2 45
    3 132
    4 145
    5 150
    6 30
    7 136
    8 80
    9 3
    10 144;

param r := 
    1 91
    2 95
    3 60
    4 60
    5 170
    6 102
    7 36
    8 33
    9 160
    10 165;

param T := 188;
param R := 170;
param M := 1000000;

end;